NAME: fm_11
TYPE: ATSP
DIMENSION: 11
EDGE_WEIGHT_TYPE: EXPLICIT
EDGE_WEIGHT_FORMAT: FULL_MATRIX
EDGE_WEIGHT_SECTION
0 35 24 13 95 42 48 64 47 9 95 
3 0 8 43 59 48 65 98 76 87 53 
24 69 0 83 51 13 17 53 17 86 35 
80 50 49 0 15 34 37 8 21 98 32 
37 100 1 63 0 26 11 64 65 87 5 
37 20 76 52 74 0 64 77 48 28 27 
100 80 69 83 42 99 0 77 16 62 60 
62 66 86 63 63 91 95 0 3 32 88 
73 40 65 5 39 74 39 95 0 94 42 
21 12 47 57 35 45 99 8 29 0 43 
52 60 67 7 67 45 79 6 93 89 0 
EOF
